(declare-const X String)
; /filename=[^\n]*\x2ewvx/i
(assert (str.in.re X (re.++ (str.to.re "/filename=") (re.* (re.comp (str.to.re "\x0a"))) (str.to.re ".wvx/i\x0a"))))
; \x2Fezsb\s+hirmvtg\x2fggqh\.kqh\dRemotetoolsbar\x2Ekuaiso\x2Ecom
(assert (not (str.in.re X (re.++ (str.to.re "/ezsb") (re.+ (re.union (str.to.re " ") (str.to.re "\x09") (str.to.re "\x0a") (str.to.re "\x0c") (str.to.re "\x0d"))) (str.to.re "hirmvtg/ggqh.kqh\x1b") (re.range "0" "9") (str.to.re "Remotetoolsbar.kuaiso.com\x0a")))))
; (\w+?@\w+?\x2E.+)
(assert (not (str.in.re X (re.++ (str.to.re "\x0a") (re.+ (re.union (re.range "0" "9") (re.range "A" "Z") (re.range "a" "z") (str.to.re "_"))) (str.to.re "@") (re.+ (re.union (re.range "0" "9") (re.range "A" "Z") (re.range "a" "z") (str.to.re "_"))) (str.to.re ".") (re.+ re.allchar)))))
(check-sat)
